(set-logic HORN)
(set-info :source |
    Benchmark: C_VC
    Output by Princess (http://www.philipp.ruemmer.org/princess.shtml)
|)
(set-info :status unknown)
(declare-fun inv_main118 (Int Int Int Int Int Int Int Int) Bool)
(declare-fun inv_main132 (Int Int Int Int Int Int Int) Bool)
(declare-fun inv_main135 (Int Int Int Int Int Int Int Int) Bool)
(declare-fun inv_main165 (Int Int Int Int Int Int Int Int Int Int) Bool)
(declare-fun inv_main213 (Int Int Int Int Int Int Int Int) Bool)
(declare-fun inv_main216 (Int Int Int Int Int Int Int Int Int) Bool)
(declare-fun inv_main234 (Int Int Int Int Int Int Int Int) Bool)
(declare-fun inv_main237 (Int Int Int Int Int Int Int) Bool)
(declare-fun inv_main49 (Int Int Int Int Int Int Int Int Int Int Int) Bool)
(declare-fun inv_main54 (Int Int Int Int Int Int Int Int Int Int Int Int) Bool)
(declare-fun inv_main72 (Int Int Int Int Int Int Int Int Int Int Int) Bool)
(declare-fun inv_main85 (Int Int Int Int Int Int Int Int Int Int) Bool)
(declare-fun inv_main96 (Int Int Int Int Int Int) Bool)
(assert (forall ((var0 Int) (var1 Int) (var2 Int) (var3 Int) (var4 Int) (var5 Int) (var6 Int) (var7 Int) (var8 Int) (var9 Int)) (or (not (and (inv_main237 var4 var0 var3 var7 var5 var6 var1) (and (and (= var2 var4) (= var8 1)) (= var9 2)))) (inv_main165 var4 var8 var9 var0 var3 var2 var7 var5 var6 var1))))
(assert (forall ((var0 Int) (var1 Int) (var2 Int) (var3 Int) (var4 Int) (var5 Int) (var6 Int) (var7 Int) (var8 Int) (var9 Int)) (or (not (and (inv_main234 var4 var0 var3 var2 var7 var5 var6 var1) (and (= var8 1) (= var9 2)))) (inv_main165 var4 var8 var9 var0 var3 var2 var7 var5 var6 var1))))
(assert (forall ((var0 Int) (var1 Int) (var2 Int) (var3 Int) (var4 Int) (var5 Int) (var6 Int) (var7 Int) (var8 Int)) (or (not (and (inv_main213 var5 1 var4 var3 var8 var6 var7 1) (and (and (= var0 1) (= var2 1)) (= 1 var1)))) (inv_main216 var5 var0 var4 var3 var8 var6 var7 var2 var1))))
(assert (forall ((var0 Int) (var1 Int) (var2 Int) (var3 Int) (var4 Int) (var5 Int) (var6 Int) (var7 Int) (var8 Int)) (or (not (and (inv_main213 var5 var0 var4 var3 var8 var6 var7 var2) (and (not (= var2 1)) (= 0 var1)))) (inv_main216 var5 var0 var4 var3 var8 var6 var7 var2 var1))))
(assert (forall ((var0 Int) (var1 Int) (var2 Int) (var3 Int) (var4 Int) (var5 Int) (var6 Int) (var7 Int) (var8 Int)) (or (not (and (inv_main213 var5 var0 var4 var3 var8 var6 var7 1) (and (and (not (= var0 1)) (= var2 1)) (= 0 var1)))) (inv_main216 var5 var0 var4 var3 var8 var6 var7 var2 var1))))
(assert (forall ((var0 Int) (var1 Int) (var2 Int) (var3 Int) (var4 Int) (var5 Int) (var6 Int) (var7 Int)) (or (not (and (inv_main118 var2 var6 var1 var3 var4 var7 var0 var5) (not (= var5 0)))) (inv_main132 var2 var6 var1 var3 var4 var7 var0))))
(assert (forall ((var0 Int) (var1 Int) (var2 Int) (var3 Int) (var4 Int) (var5 Int) (var6 Int)) (or (not (inv_main118 var2 var5 var1 var3 var4 var6 var0 0)) (inv_main132 var2 var5 var1 var3 var4 var6 var0))))
(assert (forall ((var0 Int) (var1 Int) (var2 Int) (var3 Int) (var4 Int) (var5 Int) (var6 Int) (var7 Int)) (or (not (and (inv_main132 var2 var6 var1 var3 var4 var7 1) (and (= var0 1) (= 1 var5)))) (inv_main135 var2 var6 var1 var3 var4 var7 var0 var5))))
(assert (forall ((var0 Int) (var1 Int) (var2 Int) (var3 Int) (var4 Int) (var5 Int) (var6 Int) (var7 Int)) (or (not (and (inv_main132 var2 var6 var1 var3 var4 var7 var0) (and (not (= var0 1)) (= 0 var5)))) (inv_main135 var2 var6 var1 var3 var4 var7 var0 var5))))
(assert (forall ((var0 Int) (var1 Int) (var2 Int) (var3 Int) (var4 Int) (var5 Int) (var6 Int) (var7 Int) (var8 Int)) (or (not (and (inv_main216 var4 var0 var3 var2 var8 var5 var6 var1 var7) (and (not (= var2 var4)) (not (= var7 0))))) (inv_main234 var4 var0 var3 var2 var8 var5 var6 var1))))
(assert (forall ((var0 Int) (var1 Int) (var2 Int) (var3 Int) (var4 Int) (var5 Int) (var6 Int) (var7 Int)) (or (not (and (inv_main216 var4 var0 var3 var2 var7 var5 var6 var1 0) (not (= var2 var4)))) (inv_main234 var4 var0 var3 var2 var7 var5 var6 var1))))
(assert (forall ((var0 Int) (var1 Int) (var2 Int) (var3 Int) (var4 Int) (var5 Int) (var6 Int) (var7 Int)) (or (not (and (inv_main216 var3 var0 var2 var3 var7 var4 var5 var1 var6) (and (not (= var2 var5)) (not (= var6 0))))) (inv_main237 var3 var0 var2 var7 var4 var5 var1))))
(assert (forall ((var0 Int) (var1 Int) (var2 Int) (var3 Int) (var4 Int) (var5 Int) (var6 Int)) (or (not (and (inv_main216 var3 var0 var2 var3 var6 var4 var5 var1 0) (not (= var2 var5)))) (inv_main237 var3 var0 var2 var6 var4 var5 var1))))
(assert (forall ((var0 Int) (var1 Int) (var2 Int) (var3 Int) (var4 Int) (var5 Int) (var6 Int) (var7 Int) (var8 Int) (var9 Int) (var10 Int)) (or (not (and (inv_main216 var4 var0 var6 var4 var8 var5 var6 var1 var7) (and (and (and (and (not (= var7 0)) (= var3 var4)) (= var2 var6)) (= 2 var10)) (= var9 1)))) (inv_main165 var4 var9 var10 var0 var2 var3 var8 var5 var6 var1))))
(assert (forall ((var0 Int) (var1 Int) (var2 Int) (var3 Int) (var4 Int) (var5 Int) (var6 Int) (var7 Int) (var8 Int) (var9 Int)) (or (not (and (inv_main216 var4 var0 var7 var4 var8 var6 var7 var1 0) (and (and (and (= var3 var4) (= var2 var7)) (= 2 var5)) (= var9 1)))) (inv_main165 var4 var9 var5 var0 var2 var3 var8 var6 var7 var1))))
(assert (forall ((var0 Int) (var1 Int) (var2 Int) (var3 Int) (var4 Int) (var5 Int) (var6 Int) (var7 Int) (var8 Int) (var9 Int) (var10 Int) (var11 Int)) (or (not (and (inv_main165 var5 var9 var10 var0 var4 var3 var8 1 var7 var2) (and (and (and (not (= var9 1)) (= var6 1)) (= 0 var11)) (= (+ var7 1) var1)))) (inv_main213 var5 var0 var4 var3 var11 var6 var1 var2))))
(assert (forall ((var0 Int) (var1 Int) (var2 Int) (var3 Int) (var4 Int) (var5 Int) (var6 Int) (var7 Int) (var8 Int) (var9 Int) (var10 Int)) (or (not (and (inv_main165 var5 var9 var10 var0 var4 var3 var8 var6 var7 var2) (and (and (not (= var6 1)) (not (= var9 1))) (= (+ var7 1) var1)))) (inv_main213 var5 var0 var4 var3 var8 var6 var1 var2))))
(assert (forall ((var0 Int) (var1 Int) (var2 Int) (var3 Int) (var4 Int) (var5 Int) (var6 Int) (var7 Int) (var8 Int) (var9 Int) (var10 Int) (var11 Int)) (or (not (and (inv_main165 var5 1 var10 var0 var4 var3 var8 var6 var7 var1) (and (and (= var9 1) (= 2 var11)) (= 1 var2)))) (inv_main49 var5 var9 var10 var0 var4 var3 var8 var6 var7 var11 var2))))
(assert (forall ((var0 Int) (var1 Int) (var2 Int) (var3 Int) (var4 Int) (var5 Int) (var6 Int) (var7 Int) (var8 Int) (var9 Int) (var10 Int) (var11 Int)) (or (not (and (inv_main49 var5 var9 var10 var0 var4 var3 0 var6 var7 var11 var1) (and (= var8 0) (= 1 var2)))) (inv_main54 var5 var9 var10 var0 var4 var3 var8 var6 var7 var11 var1 var2))))
(assert (forall ((var0 Int) (var1 Int) (var2 Int) (var3 Int) (var4 Int) (var5 Int) (var6 Int) (var7 Int) (var8 Int) (var9 Int) (var10 Int) (var11 Int)) (or (not (and (inv_main49 var4 var8 var9 var0 var3 var2 var7 var5 var6 0 var1) (and (and (not (= var7 0)) (= var11 0)) (= 1 var10)))) (inv_main54 var4 var8 var9 var0 var3 var2 var7 var5 var6 var11 var1 var10))))
(assert (forall ((var0 Int) (var1 Int) (var2 Int) (var3 Int) (var4 Int) (var5 Int) (var6 Int) (var7 Int) (var8 Int) (var9 Int) (var10 Int) (var11 Int)) (or (not (and (inv_main49 var4 var9 var10 var0 var3 var2 var7 var5 var6 var11 var1) (and (and (not (= var11 0)) (not (= var7 0))) (= 0 var8)))) (inv_main54 var4 var9 var10 var0 var3 var2 var7 var5 var6 var11 var1 var8))))
(assert (forall ((var0 Int) (var1 Int) (var2 Int) (var3 Int) (var4 Int) (var5 Int) (var6 Int) (var7 Int) (var8 Int) (var9 Int) (var10 Int) (var11 Int)) (or (not (and (inv_main54 var4 var8 var9 var0 var3 var2 var7 var5 var6 var10 var1 var11) (and (not (= var7 0)) (not (= var11 0))))) (inv_main72 var4 var8 var9 var0 var3 var2 var7 var5 var6 var10 var1))))
(assert (forall ((var0 Int) (var1 Int) (var2 Int) (var3 Int) (var4 Int) (var5 Int) (var6 Int) (var7 Int) (var8 Int) (var9 Int) (var10 Int) (var11 Int)) (or (not (and (inv_main54 var4 var8 var9 var0 var3 var2 0 var5 var6 var10 var1 var11) (and (not (= var11 0)) (= var7 0)))) (inv_main72 var4 var8 var9 var0 var3 var2 var7 var5 var6 var10 var1))))
(assert (forall ((var0 Int) (var1 Int) (var2 Int) (var3 Int) (var4 Int) (var5 Int) (var6 Int) (var7 Int) (var8 Int) (var9 Int) (var10 Int) (var11 Int)) (or (not (and (inv_main54 var4 var8 var9 var0 var3 var2 0 0 var6 var10 var1 var11) (and (and (not (= var7 0)) (not (= var11 0))) (= var5 0)))) (inv_main85 var4 var8 var9 var0 var3 var2 var5 var6 var10 var1))))
(assert (forall ((var0 Int) (var1 Int) (var2 Int) (var3 Int) (var4 Int) (var5 Int) (var6 Int) (var7 Int) (var8 Int) (var9 Int) (var10 Int) (var11 Int)) (or (not (and (inv_main54 var4 var8 var9 var0 var3 var2 0 var5 var6 var10 var1 var11) (and (and (and (not (= var5 1)) (not (= var5 0))) (not (= var7 0))) (not (= var11 0))))) (inv_main85 var4 var8 var9 var0 var3 var2 var5 var6 var10 var1))))
(assert (forall ((var0 Int) (var1 Int) (var2 Int) (var3 Int) (var4 Int) (var5 Int) (var6 Int) (var7 Int) (var8 Int) (var9 Int) (var10 Int) (var11 Int)) (or (not (and (inv_main54 var4 var8 var9 var0 var3 var2 0 1 var6 var10 var1 var11) (and (and (not (= var7 0)) (not (= var11 0))) (= var5 1)))) (inv_main96 var9 var3 var5 var6 var10 var1))))
(assert (forall ((var0 Int) (var1 Int) (var2 Int) (var3 Int) (var4 Int) (var5 Int) (var6 Int) (var7 Int) (var8 Int) (var9 Int)) (or (not (and (inv_main85 var4 var7 var8 var0 var3 var2 var5 var6 var9 var1) (not (= var7 0)))) (inv_main96 var8 var3 var5 var6 var9 var1))))
(assert (forall ((var0 Int) (var1 Int) (var2 Int) (var3 Int) (var4 Int) (var5 Int) (var6 Int) (var7 Int) (var8 Int)) (or (not (and (inv_main96 1 var1 1 var4 var8 var0) (and (and (and (= var7 1) (= var3 1)) (= (+ var1 1) var6)) (= 1 var5)))) (inv_main118 var2 var7 var6 var3 var4 var8 var0 var5))))
(assert (forall ((var0 Int) (var1 Int) (var2 Int) (var3 Int) (var4 Int) (var5 Int) (var6 Int) (var7 Int) (var8 Int)) (or (not (and (inv_main96 var6 var1 var3 var4 var7 var0) (and (and (not (= var3 1)) (= (+ var1 1) var2)) (= 0 var8)))) (inv_main118 var5 var6 var2 var3 var4 var7 var0 var8))))
(assert (forall ((var0 Int) (var1 Int) (var2 Int) (var3 Int) (var4 Int) (var5 Int) (var6 Int) (var7 Int) (var8 Int)) (or (not (and (inv_main96 var7 var2 1 var5 var8 var0) (and (and (and (not (= var7 1)) (= var4 1)) (= (+ var2 1) var1)) (= 0 var3)))) (inv_main118 var6 var7 var1 var4 var5 var8 var0 var3))))
(assert (forall ((var0 Int) (var1 Int) (var2 Int) (var3 Int) (var4 Int) (var5 Int) (var6 Int) (var7 Int) (var8 Int) (var9 Int) (var10 Int) (var11 Int)) (or (not (and (inv_main135 var5 var10 var4 var6 var7 var11 var1 var8) (and (and (and (and (not (= var8 0)) (= 2 var0)) (= 0 var3)) (= var2 var5)) (= var9 0)))) (inv_main85 var5 var9 var10 var0 var4 var2 var6 var7 var3 var1))))
(assert (forall ((var0 Int) (var1 Int) (var2 Int) (var3 Int) (var4 Int) (var5 Int) (var6 Int) (var7 Int) (var8 Int) (var9 Int)) (or (not (and (inv_main135 var3 var7 var2 var4 var5 var9 var0 0) (and (and (= 2 var8) (= var1 var3)) (= var6 0)))) (inv_main85 var3 var6 var7 var8 var2 var1 var4 var5 var9 var0))))
(assert (forall ((var0 Int) (var1 Int) (var2 Int) (var3 Int) (var4 Int) (var5 Int) (var6 Int) (var7 Int) (var8 Int) (var9 Int) (var10 Int)) (or (not (and (inv_main72 var4 var8 var9 var0 var3 var2 var7 var5 var6 var10 var1) (not (= var10 0)))) (inv_main49 var4 var8 var9 var0 var3 var2 var7 var5 var6 var10 var1))))
(assert (forall ((var0 Int) (var1 Int) (var2 Int) (var3 Int) (var4 Int) (var5 Int) (var6 Int) (var7 Int) (var8 Int) (var9 Int) (var10 Int)) (or (not (and (inv_main72 var4 var8 var9 var0 var3 var2 var7 var5 var6 0 var1) (= var10 0))) (inv_main49 var4 var8 var9 var0 var3 var2 var7 var5 var6 var10 var1))))
(assert (forall ((var0 Int) (var1 Int) (var2 Int) (var3 Int) (var4 Int) (var5 Int) (var6 Int) (var7 Int) (var8 Int) (var9 Int) (var10 Int)) (or (not (and (inv_main72 var4 var9 var10 var0 var3 var2 var7 var5 var6 0 0) (and (not (= var8 0)) (= var1 0)))) (inv_main165 var4 var9 var10 var0 var3 var2 var7 var5 var6 var1))))
(assert (forall ((var0 Int) (var1 Int) (var2 Int) (var3 Int) (var4 Int) (var5 Int) (var6 Int) (var7 Int) (var8 Int) (var9 Int) (var10 Int)) (or (not (and (inv_main72 var4 var9 var10 var0 var3 var2 var7 var5 var6 0 var1) (and (and (not (= var1 1)) (not (= var1 0))) (not (= var8 0))))) (inv_main165 var4 var9 var10 var0 var3 var2 var7 var5 var6 var1))))
(assert (forall ((var0 Int) (var1 Int) (var2 Int) (var3 Int) (var4 Int) (var5 Int) (var6 Int) (var7 Int) (var8 Int) (var9 Int) (var10 Int) (var11 Int) (var12 Int)) (or (not (and (inv_main72 var5 var10 var11 var0 var4 var3 var8 1 var7 0 1) (and (and (and (and (not (= var9 0)) (= var6 1)) (= var2 1)) (= 0 var1)) (= (+ var7 1) var12)))) (inv_main213 var5 var0 var4 var3 var1 var6 var12 var2))))
(assert (forall ((var0 Int) (var1 Int) (var2 Int) (var3 Int) (var4 Int) (var5 Int) (var6 Int) (var7 Int) (var8 Int) (var9 Int) (var10 Int) (var11 Int)) (or (not (and (inv_main72 var4 var9 var10 var0 var3 var2 var7 var5 var6 0 1) (and (and (and (not (= var5 1)) (not (= var8 0))) (= var1 1)) (= (+ var6 1) var11)))) (inv_main213 var4 var0 var3 var2 var7 var5 var11 var1))))
(assert (forall ((var0 Int) (var1 Int) (var2 Int) (var3 Int) (var4 Int) (var5 Int) (var6 Int) (var7 Int) (var8 Int) (var9 Int) (var10 Int) (var11 Int)) (or (not (and (inv_main85 var4 0 var9 var0 var3 var2 var5 var6 var10 var1) (and (and (= var8 0) (= 2 var11)) (= 1 var7)))) (inv_main72 var4 var8 var9 var0 var3 var2 var11 var7 var6 var10 var1))))
(assert (forall ((var0 Int) (var1 Int) (var2 Int) (var3 Int) (var4 Int) (var5 Int) (var6 Int) (var7 Int) (var8 Int) (var9 Int) (var10 Int)) (or (not (and (and (and (and (and (and (and (and (and (and (= 1 var9) (= 2 var6)) (= 2 var0)) (= 0 var7)) (= 0 var5)) (= 0 var2)) (= 0 var4)) (= 0 var8)) (= 0 var10)) (= 0 var3)) (= 0 var1))) (inv_main49 var3 var9 var6 var0 var7 var1 var5 var2 var4 var8 var10))))
(assert (forall ((var0 Int) (var1 Int) (var2 Int) (var3 Int) (var4 Int) (var5 Int) (var6 Int) (var7 Int) (var8 Int) (var9 Int) (var10 Int)) (or (not (and (inv_main54 var4 var8 var9 var0 var3 var2 0 var5 var6 var10 var1 0) (= var7 0))) (inv_main49 var4 var8 var9 var0 var3 var2 var7 var5 var6 var10 var1))))
(assert (forall ((var0 Int) (var1 Int) (var2 Int) (var3 Int) (var4 Int) (var5 Int) (var6 Int) (var7 Int) (var8 Int) (var9 Int) (var10 Int)) (or (not (and (inv_main54 var4 var8 var9 var0 var3 var2 var7 var5 var6 0 var1 0) (and (not (= var7 0)) (= var10 0)))) (inv_main49 var4 var8 var9 var0 var3 var2 var7 var5 var6 var10 var1))))
(assert (forall ((var0 Int) (var1 Int) (var2 Int) (var3 Int) (var4 Int) (var5 Int) (var6 Int)) (not (inv_main237 var3 var0 var2 var6 var4 var5 var1))))
(assert (forall ((var0 Int) (var1 Int) (var2 Int) (var3 Int) (var4 Int) (var5 Int) (var6 Int) (var7 Int)) (not (inv_main234 var4 var0 var3 var2 var7 var5 var6 var1))))
(check-sat)
